36,16542	58,25181
58,48089	29,22523
98,94190	78,76640
84,97585	91,35812
70,19659	56,44425
43,87515	74,88756
75,26798	82,62236
79,03390	47,54388
3,23464	73,56495
15,25307	27,20579
85,27237	85,98956
78,94563	51,03345
78,06779	8,10322
53,27360	9,40155
39,16895	62,66298
78,31808	92,71886
44,92288	4,37597
65,92637	52,83420
81,04476	80,37976
23,58745	24,96679